NAME: GRASP_45_19
TYPE: TSP
COMMENT: line_45_19
DIMENSION: 45
EDGE_WEIGHT_TYPE: EUC_2D
NODE_COORD_SECTION
1 829 3341
2 3019 4502
3 4482 1169
4 1005 3630
5 638 2300
6 4755 243
7 3358 1891
8 1629 1548
9 2121 991
10 1468 1245
11 252 105
12 829 4168
13 1502 1113
14 4530 437
15 3442 3966
16 60 1120
17 1051 2704
18 1297 2760
19 4761 4468
20 163 366
21 1985 903
22 792 78
23 3438 1833
24 2897 1114
25 4258 3508
26 263 4811
27 289 4371
28 2080 2178
29 137 4564
30 4368 2747
31 723 675
32 1780 4749
33 1592 1515
34 3209 1727
35 2054 3827
36 115 1966
37 2933 3169
38 1872 1736
39 59 3173
40 1356 2046
41 4669 1215
42 946 3477
43 1998 4851
44 4289 2788
45 703 134
